p tw 288 4561 8 
1 9 
1 11 
1 241 
1 243 
2 7 
2 10 
2 12 
2 242 
2 244 
3 5 
3 8 
3 10 
4 6 
4 7 
4 9 
5 9 
5 10 
6 7 
6 8 
11 18 
11 19 
11 243 
12 17 
12 20 
12 244 
13 18 
13 20 
13 23 
14 17 
14 19 
14 24 
15 19 
15 20 
15 25 
16 17 
16 18 
16 26 
21 28 
21 29 
21 31 
21 245 
21 247 
22 27 
22 30 
22 32 
22 246 
22 248 
23 28 
23 30 
24 27 
24 29 
25 29 
25 30 
26 27 
26 28 
31 38 
31 39 
31 247 
32 37 
32 40 
32 248 
33 38 
33 40 
33 43 
34 37 
34 39 
34 44 
35 39 
35 40 
35 45 
36 37 
36 38 
36 46 
41 48 
41 49 
41 51 
41 249 
41 251 
42 47 
42 50 
42 52 
42 250 
42 252 
43 48 
43 50 
44 47 
44 49 
45 49 
45 50 
46 47 
46 48 
51 58 
51 59 
51 251 
52 57 
52 60 
52 252 
53 58 
53 60 
53 63 
54 57 
54 59 
54 64 
55 59 
55 60 
55 65 
56 57 
56 58 
56 66 
61 68 
61 69 
61 71 
61 253 
61 255 
62 67 
62 70 
62 72 
62 254 
62 256 
63 68 
63 70 
64 67 
64 69 
65 69 
65 70 
66 67 
66 68 
71 78 
71 79 
71 255 
72 77 
72 80 
72 256 
73 78 
73 80 
73 83 
74 77 
74 79 
74 84 
75 79 
75 80 
75 85 
76 77 
76 78 
76 86 
81 88 
81 89 
81 91 
81 257 
81 259 
82 87 
82 90 
82 92 
82 258 
82 260 
83 88 
83 90 
84 87 
84 89 
85 89 
85 90 
86 87 
86 88 
91 98 
91 99 
91 259 
92 97 
92 100 
92 260 
93 98 
93 100 
93 103 
94 97 
94 99 
94 104 
95 99 
95 100 
95 105 
96 97 
96 98 
96 106 
101 108 
101 109 
101 111 
101 261 
101 263 
102 107 
102 110 
102 112 
102 262 
102 264 
103 108 
103 110 
104 107 
104 109 
105 109 
105 110 
106 107 
106 108 
111 118 
111 119 
111 263 
112 117 
112 120 
112 264 
113 118 
113 120 
113 123 
114 117 
114 119 
114 124 
115 119 
115 120 
115 125 
116 117 
116 118 
116 126 
121 128 
121 129 
121 131 
121 265 
121 267 
122 127 
122 130 
122 132 
122 266 
122 268 
123 128 
123 130 
124 127 
124 129 
125 129 
125 130 
126 127 
126 128 
131 138 
131 139 
131 267 
132 137 
132 140 
132 268 
133 138 
133 140 
133 143 
134 137 
134 139 
134 144 
135 139 
135 140 
135 145 
136 137 
136 138 
136 146 
141 148 
141 149 
141 151 
141 269 
141 271 
142 147 
142 150 
142 152 
142 270 
142 272 
143 148 
143 150 
144 147 
144 149 
145 149 
145 150 
146 147 
146 148 
151 158 
151 159 
151 271 
152 157 
152 160 
152 272 
153 158 
153 160 
153 163 
154 157 
154 159 
154 164 
155 159 
155 160 
155 165 
156 157 
156 158 
156 166 
161 168 
161 169 
161 171 
161 273 
161 275 
162 167 
162 170 
162 172 
162 274 
162 276 
163 168 
163 170 
164 167 
164 169 
165 169 
165 170 
166 167 
166 168 
171 178 
171 179 
171 275 
172 177 
172 180 
172 276 
173 178 
173 180 
173 183 
174 177 
174 179 
174 184 
175 179 
175 180 
175 185 
176 177 
176 178 
176 186 
181 188 
181 189 
181 191 
181 277 
181 279 
182 187 
182 190 
182 192 
182 278 
182 280 
183 188 
183 190 
184 187 
184 189 
185 189 
185 190 
186 187 
186 188 
191 198 
191 199 
191 279 
192 197 
192 200 
192 280 
193 198 
193 200 
193 203 
194 197 
194 199 
194 204 
195 199 
195 200 
195 205 
196 197 
196 198 
196 206 
201 208 
201 209 
201 211 
201 281 
201 283 
202 207 
202 210 
202 212 
202 282 
202 284 
203 208 
203 210 
204 207 
204 209 
205 209 
205 210 
206 207 
206 208 
211 218 
211 219 
211 283 
212 217 
212 220 
212 284 
213 218 
213 220 
213 223 
214 217 
214 219 
214 224 
215 219 
215 220 
215 225 
216 217 
216 218 
216 226 
221 228 
221 229 
221 231 
221 285 
221 287 
222 227 
222 230 
222 232 
222 286 
222 288 
223 228 
223 230 
224 227 
224 229 
225 229 
225 230 
226 227 
226 228 
231 238 
231 239 
231 287 
232 237 
232 240 
232 288 
233 235 
233 238 
233 240 
234 236 
234 237 
234 239 
235 239 
235 240 
236 237 
236 238 
241 242 
243 244 
245 246 
247 248 
249 250 
251 252 
253 254 
255 256 
257 258 
259 260 
261 262 
263 264 
265 266 
267 268 
269 270 
271 272 
273 274 
275 276 
277 278 
279 280 
281 282 
283 284 
285 286 
287 288 
